c created by edge2cnf
p cnf 500 3100
-1 -2 0
-1 -3 0
-1 -4 0
-1 -5 0
-2 -3 0
-2 -4 0
-2 -5 0
-3 -4 0
-3 -5 0
-4 -5 0
1 2 3 4 5 0
-6 -7 0
-6 -8 0
-6 -9 0
-6 -10 0
-7 -8 0
-7 -9 0
-7 -10 0
-8 -9 0
-8 -10 0
-9 -10 0
6 7 8 9 10 0
-11 -12 0
-11 -13 0
-11 -14 0
-11 -15 0
-12 -13 0
-12 -14 0
-12 -15 0
-13 -14 0
-13 -15 0
-14 -15 0
11 12 13 14 15 0
-16 -17 0
-16 -18 0
-16 -19 0
-16 -20 0
-17 -18 0
-17 -19 0
-17 -20 0
-18 -19 0
-18 -20 0
-19 -20 0
16 17 18 19 20 0
-21 -22 0
-21 -23 0
-21 -24 0
-21 -25 0
-22 -23 0
-22 -24 0
-22 -25 0
-23 -24 0
-23 -25 0
-24 -25 0
21 22 23 24 25 0
-26 -27 0
-26 -28 0
-26 -29 0
-26 -30 0
-27 -28 0
-27 -29 0
-27 -30 0
-28 -29 0
-28 -30 0
-29 -30 0
26 27 28 29 30 0
-31 -32 0
-31 -33 0
-31 -34 0
-31 -35 0
-32 -33 0
-32 -34 0
-32 -35 0
-33 -34 0
-33 -35 0
-34 -35 0
31 32 33 34 35 0
-36 -37 0
-36 -38 0
-36 -39 0
-36 -40 0
-37 -38 0
-37 -39 0
-37 -40 0
-38 -39 0
-38 -40 0
-39 -40 0
36 37 38 39 40 0
-41 -42 0
-41 -43 0
-41 -44 0
-41 -45 0
-42 -43 0
-42 -44 0
-42 -45 0
-43 -44 0
-43 -45 0
-44 -45 0
41 42 43 44 45 0
-46 -47 0
-46 -48 0
-46 -49 0
-46 -50 0
-47 -48 0
-47 -49 0
-47 -50 0
-48 -49 0
-48 -50 0
-49 -50 0
46 47 48 49 50 0
-51 -52 0
-51 -53 0
-51 -54 0
-51 -55 0
-52 -53 0
-52 -54 0
-52 -55 0
-53 -54 0
-53 -55 0
-54 -55 0
51 52 53 54 55 0
-56 -57 0
-56 -58 0
-56 -59 0
-56 -60 0
-57 -58 0
-57 -59 0
-57 -60 0
-58 -59 0
-58 -60 0
-59 -60 0
56 57 58 59 60 0
-61 -62 0
-61 -63 0
-61 -64 0
-61 -65 0
-62 -63 0
-62 -64 0
-62 -65 0
-63 -64 0
-63 -65 0
-64 -65 0
61 62 63 64 65 0
-66 -67 0
-66 -68 0
-66 -69 0
-66 -70 0
-67 -68 0
-67 -69 0
-67 -70 0
-68 -69 0
-68 -70 0
-69 -70 0
66 67 68 69 70 0
-71 -72 0
-71 -73 0
-71 -74 0
-71 -75 0
-72 -73 0
-72 -74 0
-72 -75 0
-73 -74 0
-73 -75 0
-74 -75 0
71 72 73 74 75 0
-76 -77 0
-76 -78 0
-76 -79 0
-76 -80 0
-77 -78 0
-77 -79 0
-77 -80 0
-78 -79 0
-78 -80 0
-79 -80 0
76 77 78 79 80 0
-81 -82 0
-81 -83 0
-81 -84 0
-81 -85 0
-82 -83 0
-82 -84 0
-82 -85 0
-83 -84 0
-83 -85 0
-84 -85 0
81 82 83 84 85 0
-86 -87 0
-86 -88 0
-86 -89 0
-86 -90 0
-87 -88 0
-87 -89 0
-87 -90 0
-88 -89 0
-88 -90 0
-89 -90 0
86 87 88 89 90 0
-91 -92 0
-91 -93 0
-91 -94 0
-91 -95 0
-92 -93 0
-92 -94 0
-92 -95 0
-93 -94 0
-93 -95 0
-94 -95 0
91 92 93 94 95 0
-96 -97 0
-96 -98 0
-96 -99 0
-96 -100 0
-97 -98 0
-97 -99 0
-97 -100 0
-98 -99 0
-98 -100 0
-99 -100 0
96 97 98 99 100 0
-101 -102 0
-101 -103 0
-101 -104 0
-101 -105 0
-102 -103 0
-102 -104 0
-102 -105 0
-103 -104 0
-103 -105 0
-104 -105 0
101 102 103 104 105 0
-106 -107 0
-106 -108 0
-106 -109 0
-106 -110 0
-107 -108 0
-107 -109 0
-107 -110 0
-108 -109 0
-108 -110 0
-109 -110 0
106 107 108 109 110 0
-111 -112 0
-111 -113 0
-111 -114 0
-111 -115 0
-112 -113 0
-112 -114 0
-112 -115 0
-113 -114 0
-113 -115 0
-114 -115 0
111 112 113 114 115 0
-116 -117 0
-116 -118 0
-116 -119 0
-116 -120 0
-117 -118 0
-117 -119 0
-117 -120 0
-118 -119 0
-118 -120 0
-119 -120 0
116 117 118 119 120 0
-121 -122 0
-121 -123 0
-121 -124 0
-121 -125 0
-122 -123 0
-122 -124 0
-122 -125 0
-123 -124 0
-123 -125 0
-124 -125 0
121 122 123 124 125 0
-126 -127 0
-126 -128 0
-126 -129 0
-126 -130 0
-127 -128 0
-127 -129 0
-127 -130 0
-128 -129 0
-128 -130 0
-129 -130 0
126 127 128 129 130 0
-131 -132 0
-131 -133 0
-131 -134 0
-131 -135 0
-132 -133 0
-132 -134 0
-132 -135 0
-133 -134 0
-133 -135 0
-134 -135 0
131 132 133 134 135 0
-136 -137 0
-136 -138 0
-136 -139 0
-136 -140 0
-137 -138 0
-137 -139 0
-137 -140 0
-138 -139 0
-138 -140 0
-139 -140 0
136 137 138 139 140 0
-141 -142 0
-141 -143 0
-141 -144 0
-141 -145 0
-142 -143 0
-142 -144 0
-142 -145 0
-143 -144 0
-143 -145 0
-144 -145 0
141 142 143 144 145 0
-146 -147 0
-146 -148 0
-146 -149 0
-146 -150 0
-147 -148 0
-147 -149 0
-147 -150 0
-148 -149 0
-148 -150 0
-149 -150 0
146 147 148 149 150 0
-151 -152 0
-151 -153 0
-151 -154 0
-151 -155 0
-152 -153 0
-152 -154 0
-152 -155 0
-153 -154 0
-153 -155 0
-154 -155 0
151 152 153 154 155 0
-156 -157 0
-156 -158 0
-156 -159 0
-156 -160 0
-157 -158 0
-157 -159 0
-157 -160 0
-158 -159 0
-158 -160 0
-159 -160 0
156 157 158 159 160 0
-161 -162 0
-161 -163 0
-161 -164 0
-161 -165 0
-162 -163 0
-162 -164 0
-162 -165 0
-163 -164 0
-163 -165 0
-164 -165 0
161 162 163 164 165 0
-166 -167 0
-166 -168 0
-166 -169 0
-166 -170 0
-167 -168 0
-167 -169 0
-167 -170 0
-168 -169 0
-168 -170 0
-169 -170 0
166 167 168 169 170 0
-171 -172 0
-171 -173 0
-171 -174 0
-171 -175 0
-172 -173 0
-172 -174 0
-172 -175 0
-173 -174 0
-173 -175 0
-174 -175 0
171 172 173 174 175 0
-176 -177 0
-176 -178 0
-176 -179 0
-176 -180 0
-177 -178 0
-177 -179 0
-177 -180 0
-178 -179 0
-178 -180 0
-179 -180 0
176 177 178 179 180 0
-181 -182 0
-181 -183 0
-181 -184 0
-181 -185 0
-182 -183 0
-182 -184 0
-182 -185 0
-183 -184 0
-183 -185 0
-184 -185 0
181 182 183 184 185 0
-186 -187 0
-186 -188 0
-186 -189 0
-186 -190 0
-187 -188 0
-187 -189 0
-187 -190 0
-188 -189 0
-188 -190 0
-189 -190 0
186 187 188 189 190 0
-191 -192 0
-191 -193 0
-191 -194 0
-191 -195 0
-192 -193 0
-192 -194 0
-192 -195 0
-193 -194 0
-193 -195 0
-194 -195 0
191 192 193 194 195 0
-196 -197 0
-196 -198 0
-196 -199 0
-196 -200 0
-197 -198 0
-197 -199 0
-197 -200 0
-198 -199 0
-198 -200 0
-199 -200 0
196 197 198 199 200 0
-201 -202 0
-201 -203 0
-201 -204 0
-201 -205 0
-202 -203 0
-202 -204 0
-202 -205 0
-203 -204 0
-203 -205 0
-204 -205 0
201 202 203 204 205 0
-206 -207 0
-206 -208 0
-206 -209 0
-206 -210 0
-207 -208 0
-207 -209 0
-207 -210 0
-208 -209 0
-208 -210 0
-209 -210 0
206 207 208 209 210 0
-211 -212 0
-211 -213 0
-211 -214 0
-211 -215 0
-212 -213 0
-212 -214 0
-212 -215 0
-213 -214 0
-213 -215 0
-214 -215 0
211 212 213 214 215 0
-216 -217 0
-216 -218 0
-216 -219 0
-216 -220 0
-217 -218 0
-217 -219 0
-217 -220 0
-218 -219 0
-218 -220 0
-219 -220 0
216 217 218 219 220 0
-221 -222 0
-221 -223 0
-221 -224 0
-221 -225 0
-222 -223 0
-222 -224 0
-222 -225 0
-223 -224 0
-223 -225 0
-224 -225 0
221 222 223 224 225 0
-226 -227 0
-226 -228 0
-226 -229 0
-226 -230 0
-227 -228 0
-227 -229 0
-227 -230 0
-228 -229 0
-228 -230 0
-229 -230 0
226 227 228 229 230 0
-231 -232 0
-231 -233 0
-231 -234 0
-231 -235 0
-232 -233 0
-232 -234 0
-232 -235 0
-233 -234 0
-233 -235 0
-234 -235 0
231 232 233 234 235 0
-236 -237 0
-236 -238 0
-236 -239 0
-236 -240 0
-237 -238 0
-237 -239 0
-237 -240 0
-238 -239 0
-238 -240 0
-239 -240 0
236 237 238 239 240 0
-241 -242 0
-241 -243 0
-241 -244 0
-241 -245 0
-242 -243 0
-242 -244 0
-242 -245 0
-243 -244 0
-243 -245 0
-244 -245 0
241 242 243 244 245 0
-246 -247 0
-246 -248 0
-246 -249 0
-246 -250 0
-247 -248 0
-247 -249 0
-247 -250 0
-248 -249 0
-248 -250 0
-249 -250 0
246 247 248 249 250 0
-251 -252 0
-251 -253 0
-251 -254 0
-251 -255 0
-252 -253 0
-252 -254 0
-252 -255 0
-253 -254 0
-253 -255 0
-254 -255 0
251 252 253 254 255 0
-256 -257 0
-256 -258 0
-256 -259 0
-256 -260 0
-257 -258 0
-257 -259 0
-257 -260 0
-258 -259 0
-258 -260 0
-259 -260 0
256 257 258 259 260 0
-261 -262 0
-261 -263 0
-261 -264 0
-261 -265 0
-262 -263 0
-262 -264 0
-262 -265 0
-263 -264 0
-263 -265 0
-264 -265 0
261 262 263 264 265 0
-266 -267 0
-266 -268 0
-266 -269 0
-266 -270 0
-267 -268 0
-267 -269 0
-267 -270 0
-268 -269 0
-268 -270 0
-269 -270 0
266 267 268 269 270 0
-271 -272 0
-271 -273 0
-271 -274 0
-271 -275 0
-272 -273 0
-272 -274 0
-272 -275 0
-273 -274 0
-273 -275 0
-274 -275 0
271 272 273 274 275 0
-276 -277 0
-276 -278 0
-276 -279 0
-276 -280 0
-277 -278 0
-277 -279 0
-277 -280 0
-278 -279 0
-278 -280 0
-279 -280 0
276 277 278 279 280 0
-281 -282 0
-281 -283 0
-281 -284 0
-281 -285 0
-282 -283 0
-282 -284 0
-282 -285 0
-283 -284 0
-283 -285 0
-284 -285 0
281 282 283 284 285 0
-286 -287 0
-286 -288 0
-286 -289 0
-286 -290 0
-287 -288 0
-287 -289 0
-287 -290 0
-288 -289 0
-288 -290 0
-289 -290 0
286 287 288 289 290 0
-291 -292 0
-291 -293 0
-291 -294 0
-291 -295 0
-292 -293 0
-292 -294 0
-292 -295 0
-293 -294 0
-293 -295 0
-294 -295 0
291 292 293 294 295 0
-296 -297 0
-296 -298 0
-296 -299 0
-296 -300 0
-297 -298 0
-297 -299 0
-297 -300 0
-298 -299 0
-298 -300 0
-299 -300 0
296 297 298 299 300 0
-301 -302 0
-301 -303 0
-301 -304 0
-301 -305 0
-302 -303 0
-302 -304 0
-302 -305 0
-303 -304 0
-303 -305 0
-304 -305 0
301 302 303 304 305 0
-306 -307 0
-306 -308 0
-306 -309 0
-306 -310 0
-307 -308 0
-307 -309 0
-307 -310 0
-308 -309 0
-308 -310 0
-309 -310 0
306 307 308 309 310 0
-311 -312 0
-311 -313 0
-311 -314 0
-311 -315 0
-312 -313 0
-312 -314 0
-312 -315 0
-313 -314 0
-313 -315 0
-314 -315 0
311 312 313 314 315 0
-316 -317 0
-316 -318 0
-316 -319 0
-316 -320 0
-317 -318 0
-317 -319 0
-317 -320 0
-318 -319 0
-318 -320 0
-319 -320 0
316 317 318 319 320 0
-321 -322 0
-321 -323 0
-321 -324 0
-321 -325 0
-322 -323 0
-322 -324 0
-322 -325 0
-323 -324 0
-323 -325 0
-324 -325 0
321 322 323 324 325 0
-326 -327 0
-326 -328 0
-326 -329 0
-326 -330 0
-327 -328 0
-327 -329 0
-327 -330 0
-328 -329 0
-328 -330 0
-329 -330 0
326 327 328 329 330 0
-331 -332 0
-331 -333 0
-331 -334 0
-331 -335 0
-332 -333 0
-332 -334 0
-332 -335 0
-333 -334 0
-333 -335 0
-334 -335 0
331 332 333 334 335 0
-336 -337 0
-336 -338 0
-336 -339 0
-336 -340 0
-337 -338 0
-337 -339 0
-337 -340 0
-338 -339 0
-338 -340 0
-339 -340 0
336 337 338 339 340 0
-341 -342 0
-341 -343 0
-341 -344 0
-341 -345 0
-342 -343 0
-342 -344 0
-342 -345 0
-343 -344 0
-343 -345 0
-344 -345 0
341 342 343 344 345 0
-346 -347 0
-346 -348 0
-346 -349 0
-346 -350 0
-347 -348 0
-347 -349 0
-347 -350 0
-348 -349 0
-348 -350 0
-349 -350 0
346 347 348 349 350 0
-351 -352 0
-351 -353 0
-351 -354 0
-351 -355 0
-352 -353 0
-352 -354 0
-352 -355 0
-353 -354 0
-353 -355 0
-354 -355 0
351 352 353 354 355 0
-356 -357 0
-356 -358 0
-356 -359 0
-356 -360 0
-357 -358 0
-357 -359 0
-357 -360 0
-358 -359 0
-358 -360 0
-359 -360 0
356 357 358 359 360 0
-361 -362 0
-361 -363 0
-361 -364 0
-361 -365 0
-362 -363 0
-362 -364 0
-362 -365 0
-363 -364 0
-363 -365 0
-364 -365 0
361 362 363 364 365 0
-366 -367 0
-366 -368 0
-366 -369 0
-366 -370 0
-367 -368 0
-367 -369 0
-367 -370 0
-368 -369 0
-368 -370 0
-369 -370 0
366 367 368 369 370 0
-371 -372 0
-371 -373 0
-371 -374 0
-371 -375 0
-372 -373 0
-372 -374 0
-372 -375 0
-373 -374 0
-373 -375 0
-374 -375 0
371 372 373 374 375 0
-376 -377 0
-376 -378 0
-376 -379 0
-376 -380 0
-377 -378 0
-377 -379 0
-377 -380 0
-378 -379 0
-378 -380 0
-379 -380 0
376 377 378 379 380 0
-381 -382 0
-381 -383 0
-381 -384 0
-381 -385 0
-382 -383 0
-382 -384 0
-382 -385 0
-383 -384 0
-383 -385 0
-384 -385 0
381 382 383 384 385 0
-386 -387 0
-386 -388 0
-386 -389 0
-386 -390 0
-387 -388 0
-387 -389 0
-387 -390 0
-388 -389 0
-388 -390 0
-389 -390 0
386 387 388 389 390 0
-391 -392 0
-391 -393 0
-391 -394 0
-391 -395 0
-392 -393 0
-392 -394 0
-392 -395 0
-393 -394 0
-393 -395 0
-394 -395 0
391 392 393 394 395 0
-396 -397 0
-396 -398 0
-396 -399 0
-396 -400 0
-397 -398 0
-397 -399 0
-397 -400 0
-398 -399 0
-398 -400 0
-399 -400 0
396 397 398 399 400 0
-401 -402 0
-401 -403 0
-401 -404 0
-401 -405 0
-402 -403 0
-402 -404 0
-402 -405 0
-403 -404 0
-403 -405 0
-404 -405 0
401 402 403 404 405 0
-406 -407 0
-406 -408 0
-406 -409 0
-406 -410 0
-407 -408 0
-407 -409 0
-407 -410 0
-408 -409 0
-408 -410 0
-409 -410 0
406 407 408 409 410 0
-411 -412 0
-411 -413 0
-411 -414 0
-411 -415 0
-412 -413 0
-412 -414 0
-412 -415 0
-413 -414 0
-413 -415 0
-414 -415 0
411 412 413 414 415 0
-416 -417 0
-416 -418 0
-416 -419 0
-416 -420 0
-417 -418 0
-417 -419 0
-417 -420 0
-418 -419 0
-418 -420 0
-419 -420 0
416 417 418 419 420 0
-421 -422 0
-421 -423 0
-421 -424 0
-421 -425 0
-422 -423 0
-422 -424 0
-422 -425 0
-423 -424 0
-423 -425 0
-424 -425 0
421 422 423 424 425 0
-426 -427 0
-426 -428 0
-426 -429 0
-426 -430 0
-427 -428 0
-427 -429 0
-427 -430 0
-428 -429 0
-428 -430 0
-429 -430 0
426 427 428 429 430 0
-431 -432 0
-431 -433 0
-431 -434 0
-431 -435 0
-432 -433 0
-432 -434 0
-432 -435 0
-433 -434 0
-433 -435 0
-434 -435 0
431 432 433 434 435 0
-436 -437 0
-436 -438 0
-436 -439 0
-436 -440 0
-437 -438 0
-437 -439 0
-437 -440 0
-438 -439 0
-438 -440 0
-439 -440 0
436 437 438 439 440 0
-441 -442 0
-441 -443 0
-441 -444 0
-441 -445 0
-442 -443 0
-442 -444 0
-442 -445 0
-443 -444 0
-443 -445 0
-444 -445 0
441 442 443 444 445 0
-446 -447 0
-446 -448 0
-446 -449 0
-446 -450 0
-447 -448 0
-447 -449 0
-447 -450 0
-448 -449 0
-448 -450 0
-449 -450 0
446 447 448 449 450 0
-451 -452 0
-451 -453 0
-451 -454 0
-451 -455 0
-452 -453 0
-452 -454 0
-452 -455 0
-453 -454 0
-453 -455 0
-454 -455 0
451 452 453 454 455 0
-456 -457 0
-456 -458 0
-456 -459 0
-456 -460 0
-457 -458 0
-457 -459 0
-457 -460 0
-458 -459 0
-458 -460 0
-459 -460 0
456 457 458 459 460 0
-461 -462 0
-461 -463 0
-461 -464 0
-461 -465 0
-462 -463 0
-462 -464 0
-462 -465 0
-463 -464 0
-463 -465 0
-464 -465 0
461 462 463 464 465 0
-466 -467 0
-466 -468 0
-466 -469 0
-466 -470 0
-467 -468 0
-467 -469 0
-467 -470 0
-468 -469 0
-468 -470 0
-469 -470 0
466 467 468 469 470 0
-471 -472 0
-471 -473 0
-471 -474 0
-471 -475 0
-472 -473 0
-472 -474 0
-472 -475 0
-473 -474 0
-473 -475 0
-474 -475 0
471 472 473 474 475 0
-476 -477 0
-476 -478 0
-476 -479 0
-476 -480 0
-477 -478 0
-477 -479 0
-477 -480 0
-478 -479 0
-478 -480 0
-479 -480 0
476 477 478 479 480 0
-481 -482 0
-481 -483 0
-481 -484 0
-481 -485 0
-482 -483 0
-482 -484 0
-482 -485 0
-483 -484 0
-483 -485 0
-484 -485 0
481 482 483 484 485 0
-486 -487 0
-486 -488 0
-486 -489 0
-486 -490 0
-487 -488 0
-487 -489 0
-487 -490 0
-488 -489 0
-488 -490 0
-489 -490 0
486 487 488 489 490 0
-491 -492 0
-491 -493 0
-491 -494 0
-491 -495 0
-492 -493 0
-492 -494 0
-492 -495 0
-493 -494 0
-493 -495 0
-494 -495 0
491 492 493 494 495 0
-496 -497 0
-496 -498 0
-496 -499 0
-496 -500 0
-497 -498 0
-497 -499 0
-497 -500 0
-498 -499 0
-498 -500 0
-499 -500 0
496 497 498 499 500 0
-21 -31 0
-22 -32 0
-23 -33 0
-24 -34 0
-25 -35 0
-26 -31 0
-27 -32 0
-28 -33 0
-29 -34 0
-30 -35 0
-66 -76 0
-67 -77 0
-68 -78 0
-69 -79 0
-70 -80 0
-71 -76 0
-72 -77 0
-73 -78 0
-74 -79 0
-75 -80 0
-71 -91 0
-72 -92 0
-73 -93 0
-74 -94 0
-75 -95 0
-91 -101 0
-92 -102 0
-93 -103 0
-94 -104 0
-95 -105 0
-126 -131 0
-127 -132 0
-128 -133 0
-129 -134 0
-130 -135 0
-131 -141 0
-132 -142 0
-133 -143 0
-134 -144 0
-135 -145 0
-171 -176 0
-172 -177 0
-173 -178 0
-174 -179 0
-175 -180 0
-176 -186 0
-177 -187 0
-178 -188 0
-179 -189 0
-180 -190 0
-186 -201 0
-187 -202 0
-188 -203 0
-189 -204 0
-190 -205 0
-241 -251 0
-242 -252 0
-243 -253 0
-244 -254 0
-245 -255 0
-241 -256 0
-242 -257 0
-243 -258 0
-244 -259 0
-245 -260 0
-256 -276 0
-257 -277 0
-258 -278 0
-259 -279 0
-260 -280 0
-261 -281 0
-262 -282 0
-263 -283 0
-264 -284 0
-265 -285 0
-271 -276 0
-272 -277 0
-273 -278 0
-274 -279 0
-275 -280 0
-286 -291 0
-287 -292 0
-288 -293 0
-289 -294 0
-290 -295 0
-296 -311 0
-297 -312 0
-298 -313 0
-299 -314 0
-300 -315 0
-321 -341 0
-322 -342 0
-323 -343 0
-324 -344 0
-325 -345 0
-331 -341 0
-332 -342 0
-333 -343 0
-334 -344 0
-335 -345 0
-336 -356 0
-337 -357 0
-338 -358 0
-339 -359 0
-340 -360 0
-366 -381 0
-367 -382 0
-368 -383 0
-369 -384 0
-370 -385 0
-391 -411 0
-392 -412 0
-393 -413 0
-394 -414 0
-395 -415 0
-456 -471 0
-457 -472 0
-458 -473 0
-459 -474 0
-460 -475 0
-476 -491 0
-477 -492 0
-478 -493 0
-479 -494 0
-480 -495 0
-1 -106 0
-2 -107 0
-3 -108 0
-4 -109 0
-5 -110 0
-1 -161 0
-2 -162 0
-3 -163 0
-4 -164 0
-5 -165 0
-1 -181 0
-2 -182 0
-3 -183 0
-4 -184 0
-5 -185 0
-1 -251 0
-2 -252 0
-3 -253 0
-4 -254 0
-5 -255 0
-1 -281 0
-2 -282 0
-3 -283 0
-4 -284 0
-5 -285 0
-1 -311 0
-2 -312 0
-3 -313 0
-4 -314 0
-5 -315 0
-1 -331 0
-2 -332 0
-3 -333 0
-4 -334 0
-5 -335 0
-6 -51 0
-7 -52 0
-8 -53 0
-9 -54 0
-10 -55 0
-6 -331 0
-7 -332 0
-8 -333 0
-9 -334 0
-10 -335 0
-6 -341 0
-7 -342 0
-8 -343 0
-9 -344 0
-10 -345 0
-6 -381 0
-7 -382 0
-8 -383 0
-9 -384 0
-10 -385 0
-6 -401 0
-7 -402 0
-8 -403 0
-9 -404 0
-10 -405 0
-11 -51 0
-12 -52 0
-13 -53 0
-14 -54 0
-15 -55 0
-11 -66 0
-12 -67 0
-13 -68 0
-14 -69 0
-15 -70 0
-11 -96 0
-12 -97 0
-13 -98 0
-14 -99 0
-15 -100 0
-11 -171 0
-12 -172 0
-13 -173 0
-14 -174 0
-15 -175 0
-11 -311 0
-12 -312 0
-13 -313 0
-14 -314 0
-15 -315 0
-11 -406 0
-12 -407 0
-13 -408 0
-14 -409 0
-15 -410 0
-11 -456 0
-12 -457 0
-13 -458 0
-14 -459 0
-15 -460 0
-11 -471 0
-12 -472 0
-13 -473 0
-14 -474 0
-15 -475 0
-16 -61 0
-17 -62 0
-18 -63 0
-19 -64 0
-20 -65 0
-16 -106 0
-17 -107 0
-18 -108 0
-19 -109 0
-20 -110 0
-16 -146 0
-17 -147 0
-18 -148 0
-19 -149 0
-20 -150 0
-16 -306 0
-17 -307 0
-18 -308 0
-19 -309 0
-20 -310 0
-21 -151 0
-22 -152 0
-23 -153 0
-24 -154 0
-25 -155 0
-21 -186 0
-22 -187 0
-23 -188 0
-24 -189 0
-25 -190 0
-21 -226 0
-22 -227 0
-23 -228 0
-24 -229 0
-25 -230 0
-21 -241 0
-22 -242 0
-23 -243 0
-24 -244 0
-25 -245 0
-21 -261 0
-22 -262 0
-23 -263 0
-24 -264 0
-25 -265 0
-21 -276 0
-22 -277 0
-23 -278 0
-24 -279 0
-25 -280 0
-21 -391 0
-22 -392 0
-23 -393 0
-24 -394 0
-25 -395 0
-26 -81 0
-27 -82 0
-28 -83 0
-29 -84 0
-30 -85 0
-26 -141 0
-27 -142 0
-28 -143 0
-29 -144 0
-30 -145 0
-26 -206 0
-27 -207 0
-28 -208 0
-29 -209 0
-30 -210 0
-26 -251 0
-27 -252 0
-28 -253 0
-29 -254 0
-30 -255 0
-26 -276 0
-27 -277 0
-28 -278 0
-29 -279 0
-30 -280 0
-26 -286 0
-27 -287 0
-28 -288 0
-29 -289 0
-30 -290 0
-26 -301 0
-27 -302 0
-28 -303 0
-29 -304 0
-30 -305 0
-26 -416 0
-27 -417 0
-28 -418 0
-29 -419 0
-30 -420 0
-26 -446 0
-27 -447 0
-28 -448 0
-29 -449 0
-30 -450 0
-31 -101 0
-32 -102 0
-33 -103 0
-34 -104 0
-35 -105 0
-31 -111 0
-32 -112 0
-33 -113 0
-34 -114 0
-35 -115 0
-31 -121 0
-32 -122 0
-33 -123 0
-34 -124 0
-35 -125 0
-31 -161 0
-32 -162 0
-33 -163 0
-34 -164 0
-35 -165 0
-31 -216 0
-32 -217 0
-33 -218 0
-34 -219 0
-35 -220 0
-31 -256 0
-32 -257 0
-33 -258 0
-34 -259 0
-35 -260 0
-31 -326 0
-32 -327 0
-33 -328 0
-34 -329 0
-35 -330 0
-31 -346 0
-32 -347 0
-33 -348 0
-34 -349 0
-35 -350 0
-31 -356 0
-32 -357 0
-33 -358 0
-34 -359 0
-35 -360 0
-31 -381 0
-32 -382 0
-33 -383 0
-34 -384 0
-35 -385 0
-31 -391 0
-32 -392 0
-33 -393 0
-34 -394 0
-35 -395 0
-31 -461 0
-32 -462 0
-33 -463 0
-34 -464 0
-35 -465 0
-31 -476 0
-32 -477 0
-33 -478 0
-34 -479 0
-35 -480 0
-36 -226 0
-37 -227 0
-38 -228 0
-39 -229 0
-40 -230 0
-36 -236 0
-37 -237 0
-38 -238 0
-39 -239 0
-40 -240 0
-36 -271 0
-37 -272 0
-38 -273 0
-39 -274 0
-40 -275 0
-36 -336 0
-37 -337 0
-38 -338 0
-39 -339 0
-40 -340 0
-36 -351 0
-37 -352 0
-38 -353 0
-39 -354 0
-40 -355 0
-36 -406 0
-37 -407 0
-38 -408 0
-39 -409 0
-40 -410 0
-36 -441 0
-37 -442 0
-38 -443 0
-39 -444 0
-40 -445 0
-36 -451 0
-37 -452 0
-38 -453 0
-39 -454 0
-40 -455 0
-36 -461 0
-37 -462 0
-38 -463 0
-39 -464 0
-40 -465 0
-41 -66 0
-42 -67 0
-43 -68 0
-44 -69 0
-45 -70 0
-41 -76 0
-42 -77 0
-43 -78 0
-44 -79 0
-45 -80 0
-41 -251 0
-42 -252 0
-43 -253 0
-44 -254 0
-45 -255 0
-41 -266 0
-42 -267 0
-43 -268 0
-44 -269 0
-45 -270 0
-41 -291 0
-42 -292 0
-43 -293 0
-44 -294 0
-45 -295 0
-41 -301 0
-42 -302 0
-43 -303 0
-44 -304 0
-45 -305 0
-41 -356 0
-42 -357 0
-43 -358 0
-44 -359 0
-45 -360 0
-41 -486 0
-42 -487 0
-43 -488 0
-44 -489 0
-45 -490 0
-46 -81 0
-47 -82 0
-48 -83 0
-49 -84 0
-50 -85 0
-46 -226 0
-47 -227 0
-48 -228 0
-49 -229 0
-50 -230 0
-46 -246 0
-47 -247 0
-48 -248 0
-49 -249 0
-50 -250 0
-46 -251 0
-47 -252 0
-48 -253 0
-49 -254 0
-50 -255 0
-46 -326 0
-47 -327 0
-48 -328 0
-49 -329 0
-50 -330 0
-46 -331 0
-47 -332 0
-48 -333 0
-49 -334 0
-50 -335 0
-46 -416 0
-47 -417 0
-48 -418 0
-49 -419 0
-50 -420 0
-46 -421 0
-47 -422 0
-48 -423 0
-49 -424 0
-50 -425 0
-46 -466 0
-47 -467 0
-48 -468 0
-49 -469 0
-50 -470 0
-51 -76 0
-52 -77 0
-53 -78 0
-54 -79 0
-55 -80 0
-51 -191 0
-52 -192 0
-53 -193 0
-54 -194 0
-55 -195 0
-51 -231 0
-52 -232 0
-53 -233 0
-54 -234 0
-55 -235 0
-51 -281 0
-52 -282 0
-53 -283 0
-54 -284 0
-55 -285 0
-51 -326 0
-52 -327 0
-53 -328 0
-54 -329 0
-55 -330 0
-51 -351 0
-52 -352 0
-53 -353 0
-54 -354 0
-55 -355 0
-51 -431 0
-52 -432 0
-53 -433 0
-54 -434 0
-55 -435 0
-51 -496 0
-52 -497 0
-53 -498 0
-54 -499 0
-55 -500 0
-56 -106 0
-57 -107 0
-58 -108 0
-59 -109 0
-60 -110 0
-56 -111 0
-57 -112 0
-58 -113 0
-59 -114 0
-60 -115 0
-56 -176 0
-57 -177 0
-58 -178 0
-59 -179 0
-60 -180 0
-56 -251 0
-57 -252 0
-58 -253 0
-59 -254 0
-60 -255 0
-56 -301 0
-57 -302 0
-58 -303 0
-59 -304 0
-60 -305 0
-56 -306 0
-57 -307 0
-58 -308 0
-59 -309 0
-60 -310 0
-56 -331 0
-57 -332 0
-58 -333 0
-59 -334 0
-60 -335 0
-56 -386 0
-57 -387 0
-58 -388 0
-59 -389 0
-60 -390 0
-56 -391 0
-57 -392 0
-58 -393 0
-59 -394 0
-60 -395 0
-56 -431 0
-57 -432 0
-58 -433 0
-59 -434 0
-60 -435 0
-56 -436 0
-57 -437 0
-58 -438 0
-59 -439 0
-60 -440 0
-56 -451 0
-57 -452 0
-58 -453 0
-59 -454 0
-60 -455 0
-61 -91 0
-62 -92 0
-63 -93 0
-64 -94 0
-65 -95 0
-61 -256 0
-62 -257 0
-63 -258 0
-64 -259 0
-65 -260 0
-61 -286 0
-62 -287 0
-63 -288 0
-64 -289 0
-65 -290 0
-61 -326 0
-62 -327 0
-63 -328 0
-64 -329 0
-65 -330 0
-61 -376 0
-62 -377 0
-63 -378 0
-64 -379 0
-65 -380 0
-61 -451 0
-62 -452 0
-63 -453 0
-64 -454 0
-65 -455 0
-66 -91 0
-67 -92 0
-68 -93 0
-69 -94 0
-70 -95 0
-66 -186 0
-67 -187 0
-68 -188 0
-69 -189 0
-70 -190 0
-66 -191 0
-67 -192 0
-68 -193 0
-69 -194 0
-70 -195 0
-66 -196 0
-67 -197 0
-68 -198 0
-69 -199 0
-70 -200 0
-66 -261 0
-67 -262 0
-68 -263 0
-69 -264 0
-70 -265 0
-66 -326 0
-67 -327 0
-68 -328 0
-69 -329 0
-70 -330 0
-66 -366 0
-67 -367 0
-68 -368 0
-69 -369 0
-70 -370 0
-66 -381 0
-67 -382 0
-68 -383 0
-69 -384 0
-70 -385 0
-66 -446 0
-67 -447 0
-68 -448 0
-69 -449 0
-70 -450 0
-71 -111 0
-72 -112 0
-73 -113 0
-74 -114 0
-75 -115 0
-71 -136 0
-72 -137 0
-73 -138 0
-74 -139 0
-75 -140 0
-71 -276 0
-72 -277 0
-73 -278 0
-74 -279 0
-75 -280 0
-71 -286 0
-72 -287 0
-73 -288 0
-74 -289 0
-75 -290 0
-71 -431 0
-72 -432 0
-73 -433 0
-74 -434 0
-75 -435 0
-71 -481 0
-72 -482 0
-73 -483 0
-74 -484 0
-75 -485 0
-71 -491 0
-72 -492 0
-73 -493 0
-74 -494 0
-75 -495 0
-76 -196 0
-77 -197 0
-78 -198 0
-79 -199 0
-80 -200 0
-76 -201 0
-77 -202 0
-78 -203 0
-79 -204 0
-80 -205 0
-76 -261 0
-77 -262 0
-78 -263 0
-79 -264 0
-80 -265 0
-76 -326 0
-77 -327 0
-78 -328 0
-79 -329 0
-80 -330 0
-76 -401 0
-77 -402 0
-78 -403 0
-79 -404 0
-80 -405 0
-76 -446 0
-77 -447 0
-78 -448 0
-79 -449 0
-80 -450 0
-76 -491 0
-77 -492 0
-78 -493 0
-79 -494 0
-80 -495 0
-81 -151 0
-82 -152 0
-83 -153 0
-84 -154 0
-85 -155 0
-81 -276 0
-82 -277 0
-83 -278 0
-84 -279 0
-85 -280 0
-81 -441 0
-82 -442 0
-83 -443 0
-84 -444 0
-85 -445 0
-86 -236 0
-87 -237 0
-88 -238 0
-89 -239 0
-90 -240 0
-86 -311 0
-87 -312 0
-88 -313 0
-89 -314 0
-90 -315 0
-86 -361 0
-87 -362 0
-88 -363 0
-89 -364 0
-90 -365 0
-86 -391 0
-87 -392 0
-88 -393 0
-89 -394 0
-90 -395 0
-86 -396 0
-87 -397 0
-88 -398 0
-89 -399 0
-90 -400 0
-86 -466 0
-87 -467 0
-88 -468 0
-89 -469 0
-90 -470 0
-91 -156 0
-92 -157 0
-93 -158 0
-94 -159 0
-95 -160 0
-91 -226 0
-92 -227 0
-93 -228 0
-94 -229 0
-95 -230 0
-91 -266 0
-92 -267 0
-93 -268 0
-94 -269 0
-95 -270 0
-91 -326 0
-92 -327 0
-93 -328 0
-94 -329 0
-95 -330 0
-91 -376 0
-92 -377 0
-93 -378 0
-94 -379 0
-95 -380 0
-91 -391 0
-92 -392 0
-93 -393 0
-94 -394 0
-95 -395 0
-96 -136 0
-97 -137 0
-98 -138 0
-99 -139 0
-100 -140 0
-96 -151 0
-97 -152 0
-98 -153 0
-99 -154 0
-100 -155 0
-96 -156 0
-97 -157 0
-98 -158 0
-99 -159 0
-100 -160 0
-96 -181 0
-97 -182 0
-98 -183 0
-99 -184 0
-100 -185 0
-96 -191 0
-97 -192 0
-98 -193 0
-99 -194 0
-100 -195 0
-96 -216 0
-97 -217 0
-98 -218 0
-99 -219 0
-100 -220 0
-96 -371 0
-97 -372 0
-98 -373 0
-99 -374 0
-100 -375 0
-96 -381 0
-97 -382 0
-98 -383 0
-99 -384 0
-100 -385 0
-101 -131 0
-102 -132 0
-103 -133 0
-104 -134 0
-105 -135 0
-101 -196 0
-102 -197 0
-103 -198 0
-104 -199 0
-105 -200 0
-101 -201 0
-102 -202 0
-103 -203 0
-104 -204 0
-105 -205 0
-101 -236 0
-102 -237 0
-103 -238 0
-104 -239 0
-105 -240 0
-101 -326 0
-102 -327 0
-103 -328 0
-104 -329 0
-105 -330 0
-101 -356 0
-102 -357 0
-103 -358 0
-104 -359 0
-105 -360 0
-101 -436 0
-102 -437 0
-103 -438 0
-104 -439 0
-105 -440 0
-106 -136 0
-107 -137 0
-108 -138 0
-109 -139 0
-110 -140 0
-106 -246 0
-107 -247 0
-108 -248 0
-109 -249 0
-110 -250 0
-106 -406 0
-107 -407 0
-108 -408 0
-109 -409 0
-110 -410 0
-106 -426 0
-107 -427 0
-108 -428 0
-109 -429 0
-110 -430 0
-111 -141 0
-112 -142 0
-113 -143 0
-114 -144 0
-115 -145 0
-111 -161 0
-112 -162 0
-113 -163 0
-114 -164 0
-115 -165 0
-111 -176 0
-112 -177 0
-113 -178 0
-114 -179 0
-115 -180 0
-111 -346 0
-112 -347 0
-113 -348 0
-114 -349 0
-115 -350 0
-111 -356 0
-112 -357 0
-113 -358 0
-114 -359 0
-115 -360 0
-116 -266 0
-117 -267 0
-118 -268 0
-119 -269 0
-120 -270 0
-116 -436 0
-117 -437 0
-118 -438 0
-119 -439 0
-120 -440 0
-116 -486 0
-117 -487 0
-118 -488 0
-119 -489 0
-120 -490 0
-121 -271 0
-122 -272 0
-123 -273 0
-124 -274 0
-125 -275 0
-121 -296 0
-122 -297 0
-123 -298 0
-124 -299 0
-125 -300 0
-121 -371 0
-122 -372 0
-123 -373 0
-124 -374 0
-125 -375 0
-121 -406 0
-122 -407 0
-123 -408 0
-124 -409 0
-125 -410 0
-121 -456 0
-122 -457 0
-123 -458 0
-124 -459 0
-125 -460 0
-121 -476 0
-122 -477 0
-123 -478 0
-124 -479 0
-125 -480 0
-121 -491 0
-122 -492 0
-123 -493 0
-124 -494 0
-125 -495 0
-126 -161 0
-127 -162 0
-128 -163 0
-129 -164 0
-130 -165 0
-126 -181 0
-127 -182 0
-128 -183 0
-129 -184 0
-130 -185 0
-126 -371 0
-127 -372 0
-128 -373 0
-129 -374 0
-130 -375 0
-126 -466 0
-127 -467 0
-128 -468 0
-129 -469 0
-130 -470 0
-131 -161 0
-132 -162 0
-133 -163 0
-134 -164 0
-135 -165 0
-131 -166 0
-132 -167 0
-133 -168 0
-134 -169 0
-135 -170 0
-131 -171 0
-132 -172 0
-133 -173 0
-134 -174 0
-135 -175 0
-131 -176 0
-132 -177 0
-133 -178 0
-134 -179 0
-135 -180 0
-131 -236 0
-132 -237 0
-133 -238 0
-134 -239 0
-135 -240 0
-131 -261 0
-132 -262 0
-133 -263 0
-134 -264 0
-135 -265 0
-131 -266 0
-132 -267 0
-133 -268 0
-134 -269 0
-135 -270 0
-131 -296 0
-132 -297 0
-133 -298 0
-134 -299 0
-135 -300 0
-131 -311 0
-132 -312 0
-133 -313 0
-134 -314 0
-135 -315 0
-131 -356 0
-132 -357 0
-133 -358 0
-134 -359 0
-135 -360 0
-131 -381 0
-132 -382 0
-133 -383 0
-134 -384 0
-135 -385 0
-131 -406 0
-132 -407 0
-133 -408 0
-134 -409 0
-135 -410 0
-131 -431 0
-132 -432 0
-133 -433 0
-134 -434 0
-135 -435 0
-136 -236 0
-137 -237 0
-138 -238 0
-139 -239 0
-140 -240 0
-136 -326 0
-137 -327 0
-138 -328 0
-139 -329 0
-140 -330 0
-136 -351 0
-137 -352 0
-138 -353 0
-139 -354 0
-140 -355 0
-136 -371 0
-137 -372 0
-138 -373 0
-139 -374 0
-140 -375 0
-136 -381 0
-137 -382 0
-138 -383 0
-139 -384 0
-140 -385 0
-136 -451 0
-137 -452 0
-138 -453 0
-139 -454 0
-140 -455 0
-141 -216 0
-142 -217 0
-143 -218 0
-144 -219 0
-145 -220 0
-141 -246 0
-142 -247 0
-143 -248 0
-144 -249 0
-145 -250 0
-141 -361 0
-142 -362 0
-143 -363 0
-144 -364 0
-145 -365 0
-141 -406 0
-142 -407 0
-143 -408 0
-144 -409 0
-145 -410 0
-146 -226 0
-147 -227 0
-148 -228 0
-149 -229 0
-150 -230 0
-146 -266 0
-147 -267 0
-148 -268 0
-149 -269 0
-150 -270 0
-146 -306 0
-147 -307 0
-148 -308 0
-149 -309 0
-150 -310 0
-146 -316 0
-147 -317 0
-148 -318 0
-149 -319 0
-150 -320 0
-146 -416 0
-147 -417 0
-148 -418 0
-149 -419 0
-150 -420 0
-146 -471 0
-147 -472 0
-148 -473 0
-149 -474 0
-150 -475 0
-146 -486 0
-147 -487 0
-148 -488 0
-149 -489 0
-150 -490 0
-151 -181 0
-152 -182 0
-153 -183 0
-154 -184 0
-155 -185 0
-151 -186 0
-152 -187 0
-153 -188 0
-154 -189 0
-155 -190 0
-151 -341 0
-152 -342 0
-153 -343 0
-154 -344 0
-155 -345 0
-151 -346 0
-152 -347 0
-153 -348 0
-154 -349 0
-155 -350 0
-156 -231 0
-157 -232 0
-158 -233 0
-159 -234 0
-160 -235 0
-156 -286 0
-157 -287 0
-158 -288 0
-159 -289 0
-160 -290 0
-156 -386 0
-157 -387 0
-158 -388 0
-159 -389 0
-160 -390 0
-156 -401 0
-157 -402 0
-158 -403 0
-159 -404 0
-160 -405 0
-156 -421 0
-157 -422 0
-158 -423 0
-159 -424 0
-160 -425 0
-156 -446 0
-157 -447 0
-158 -448 0
-159 -449 0
-160 -450 0
-161 -241 0
-162 -242 0
-163 -243 0
-164 -244 0
-165 -245 0
-161 -331 0
-162 -332 0
-163 -333 0
-164 -334 0
-165 -335 0
-161 -351 0
-162 -352 0
-163 -353 0
-164 -354 0
-165 -355 0
-161 -461 0
-162 -462 0
-163 -463 0
-164 -464 0
-165 -465 0
-166 -196 0
-167 -197 0
-168 -198 0
-169 -199 0
-170 -200 0
-166 -241 0
-167 -242 0
-168 -243 0
-169 -244 0
-170 -245 0
-166 -266 0
-167 -267 0
-168 -268 0
-169 -269 0
-170 -270 0
-166 -416 0
-167 -417 0
-168 -418 0
-169 -419 0
-170 -420 0
-166 -491 0
-167 -492 0
-168 -493 0
-169 -494 0
-170 -495 0
-171 -211 0
-172 -212 0
-173 -213 0
-174 -214 0
-175 -215 0
-171 -366 0
-172 -367 0
-173 -368 0
-174 -369 0
-175 -370 0
-171 -371 0
-172 -372 0
-173 -373 0
-174 -374 0
-175 -375 0
-171 -376 0
-172 -377 0
-173 -378 0
-174 -379 0
-175 -380 0
-171 -481 0
-172 -482 0
-173 -483 0
-174 -484 0
-175 -485 0
-171 -491 0
-172 -492 0
-173 -493 0
-174 -494 0
-175 -495 0
-176 -276 0
-177 -277 0
-178 -278 0
-179 -279 0
-180 -280 0
-176 -321 0
-177 -322 0
-178 -323 0
-179 -324 0
-180 -325 0
-176 -476 0
-177 -477 0
-178 -478 0
-179 -479 0
-180 -480 0
-181 -276 0
-182 -277 0
-183 -278 0
-184 -279 0
-185 -280 0
-181 -301 0
-182 -302 0
-183 -303 0
-184 -304 0
-185 -305 0
-181 -346 0
-182 -347 0
-183 -348 0
-184 -349 0
-185 -350 0
-181 -361 0
-182 -362 0
-183 -363 0
-184 -364 0
-185 -365 0
-181 -366 0
-182 -367 0
-183 -368 0
-184 -369 0
-185 -370 0
-186 -321 0
-187 -322 0
-188 -323 0
-189 -324 0
-190 -325 0
-186 -326 0
-187 -327 0
-188 -328 0
-189 -329 0
-190 -330 0
-186 -466 0
-187 -467 0
-188 -468 0
-189 -469 0
-190 -470 0
-186 -476 0
-187 -477 0
-188 -478 0
-189 -479 0
-190 -480 0
-191 -331 0
-192 -332 0
-193 -333 0
-194 -334 0
-195 -335 0
-191 -356 0
-192 -357 0
-193 -358 0
-194 -359 0
-195 -360 0
-191 -441 0
-192 -442 0
-193 -443 0
-194 -444 0
-195 -445 0
-196 -231 0
-197 -232 0
-198 -233 0
-199 -234 0
-200 -235 0
-196 -326 0
-197 -327 0
-198 -328 0
-199 -329 0
-200 -330 0
-196 -351 0
-197 -352 0
-198 -353 0
-199 -354 0
-200 -355 0
-196 -366 0
-197 -367 0
-198 -368 0
-199 -369 0
-200 -370 0
-196 -396 0
-197 -397 0
-198 -398 0
-199 -399 0
-200 -400 0
-196 -421 0
-197 -422 0
-198 -423 0
-199 -424 0
-200 -425 0
-196 -476 0
-197 -477 0
-198 -478 0
-199 -479 0
-200 -480 0
-201 -236 0
-202 -237 0
-203 -238 0
-204 -239 0
-205 -240 0
-201 -266 0
-202 -267 0
-203 -268 0
-204 -269 0
-205 -270 0
-201 -331 0
-202 -332 0
-203 -333 0
-204 -334 0
-205 -335 0
-201 -466 0
-202 -467 0
-203 -468 0
-204 -469 0
-205 -470 0
-206 -241 0
-207 -242 0
-208 -243 0
-209 -244 0
-210 -245 0
-206 -406 0
-207 -407 0
-208 -408 0
-209 -409 0
-210 -410 0
-206 -471 0
-207 -472 0
-208 -473 0
-209 -474 0
-210 -475 0
-211 -241 0
-212 -242 0
-213 -243 0
-214 -244 0
-215 -245 0
-211 -321 0
-212 -322 0
-213 -323 0
-214 -324 0
-215 -325 0
-211 -331 0
-212 -332 0
-213 -333 0
-214 -334 0
-215 -335 0
-211 -476 0
-212 -477 0
-213 -478 0
-214 -479 0
-215 -480 0
-216 -251 0
-217 -252 0
-218 -253 0
-219 -254 0
-220 -255 0
-216 -276 0
-217 -277 0
-218 -278 0
-219 -279 0
-220 -280 0
-216 -291 0
-217 -292 0
-218 -293 0
-219 -294 0
-220 -295 0
-216 -386 0
-217 -387 0
-218 -388 0
-219 -389 0
-220 -390 0
-216 -396 0
-217 -397 0
-218 -398 0
-219 -399 0
-220 -400 0
-216 -401 0
-217 -402 0
-218 -403 0
-219 -404 0
-220 -405 0
-216 -461 0
-217 -462 0
-218 -463 0
-219 -464 0
-220 -465 0
-216 -471 0
-217 -472 0
-218 -473 0
-219 -474 0
-220 -475 0
-221 -246 0
-222 -247 0
-223 -248 0
-224 -249 0
-225 -250 0
-221 -266 0
-222 -267 0
-223 -268 0
-224 -269 0
-225 -270 0
-221 -281 0
-222 -282 0
-223 -283 0
-224 -284 0
-225 -285 0
-221 -396 0
-222 -397 0
-223 -398 0
-224 -399 0
-225 -400 0
-221 -426 0
-222 -427 0
-223 -428 0
-224 -429 0
-225 -430 0
-226 -251 0
-227 -252 0
-228 -253 0
-229 -254 0
-230 -255 0
-226 -376 0
-227 -377 0
-228 -378 0
-229 -379 0
-230 -380 0
-226 -461 0
-227 -462 0
-228 -463 0
-229 -464 0
-230 -465 0
-226 -491 0
-227 -492 0
-228 -493 0
-229 -494 0
-230 -495 0
-231 -281 0
-232 -282 0
-233 -283 0
-234 -284 0
-235 -285 0
-231 -366 0
-232 -367 0
-233 -368 0
-234 -369 0
-235 -370 0
-231 -431 0
-232 -432 0
-233 -433 0
-234 -434 0
-235 -435 0
-231 -451 0
-232 -452 0
-233 -453 0
-234 -454 0
-235 -455 0
-231 -481 0
-232 -482 0
-233 -483 0
-234 -484 0
-235 -485 0
-231 -486 0
-232 -487 0
-233 -488 0
-234 -489 0
-235 -490 0
-231 -491 0
-232 -492 0
-233 -493 0
-234 -494 0
-235 -495 0
-236 -371 0
-237 -372 0
-238 -373 0
-239 -374 0
-240 -375 0
-236 -401 0
-237 -402 0
-238 -403 0
-239 -404 0
-240 -405 0
-241 -276 0
-242 -277 0
-243 -278 0
-244 -279 0
-245 -280 0
-241 -321 0
-242 -322 0
-243 -323 0
-244 -324 0
-245 -325 0
-241 -346 0
-242 -347 0
-243 -348 0
-244 -349 0
-245 -350 0
-241 -401 0
-242 -402 0
-243 -403 0
-244 -404 0
-245 -405 0
-241 -446 0
-242 -447 0
-243 -448 0
-244 -449 0
-245 -450 0
-246 -306 0
-247 -307 0
-248 -308 0
-249 -309 0
-250 -310 0
-246 -331 0
-247 -332 0
-248 -333 0
-249 -334 0
-250 -335 0
-246 -346 0
-247 -347 0
-248 -348 0
-249 -349 0
-250 -350 0
-246 -366 0
-247 -367 0
-248 -368 0
-249 -369 0
-250 -370 0
-246 -431 0
-247 -432 0
-248 -433 0
-249 -434 0
-250 -435 0
-246 -466 0
-247 -467 0
-248 -468 0
-249 -469 0
-250 -470 0
-251 -356 0
-252 -357 0
-253 -358 0
-254 -359 0
-255 -360 0
-251 -381 0
-252 -382 0
-253 -383 0
-254 -384 0
-255 -385 0
-256 -281 0
-257 -282 0
-258 -283 0
-259 -284 0
-260 -285 0
-256 -306 0
-257 -307 0
-258 -308 0
-259 -309 0
-260 -310 0
-256 -486 0
-257 -487 0
-258 -488 0
-259 -489 0
-260 -490 0
-261 -296 0
-262 -297 0
-263 -298 0
-264 -299 0
-265 -300 0
-261 -341 0
-262 -342 0
-263 -343 0
-264 -344 0
-265 -345 0
-261 -486 0
-262 -487 0
-263 -488 0
-264 -489 0
-265 -490 0
-266 -386 0
-267 -387 0
-268 -388 0
-269 -389 0
-270 -390 0
-271 -441 0
-272 -442 0
-273 -443 0
-274 -444 0
-275 -445 0
-276 -356 0
-277 -357 0
-278 -358 0
-279 -359 0
-280 -360 0
-276 -361 0
-277 -362 0
-278 -363 0
-279 -364 0
-280 -365 0
-276 -491 0
-277 -492 0
-278 -493 0
-279 -494 0
-280 -495 0
-281 -341 0
-282 -342 0
-283 -343 0
-284 -344 0
-285 -345 0
-281 -406 0
-282 -407 0
-283 -408 0
-284 -409 0
-285 -410 0
-281 -461 0
-282 -462 0
-283 -463 0
-284 -464 0
-285 -465 0
-281 -481 0
-282 -482 0
-283 -483 0
-284 -484 0
-285 -485 0
-286 -331 0
-287 -332 0
-288 -333 0
-289 -334 0
-290 -335 0
-286 -416 0
-287 -417 0
-288 -418 0
-289 -419 0
-290 -420 0
-291 -316 0
-292 -317 0
-293 -318 0
-294 -319 0
-295 -320 0
-291 -331 0
-292 -332 0
-293 -333 0
-294 -334 0
-295 -335 0
-291 -366 0
-292 -367 0
-293 -368 0
-294 -369 0
-295 -370 0
-291 -481 0
-292 -482 0
-293 -483 0
-294 -484 0
-295 -485 0
-291 -496 0
-292 -497 0
-293 -498 0
-294 -499 0
-295 -500 0
-296 -366 0
-297 -367 0
-298 -368 0
-299 -369 0
-300 -370 0
-296 -381 0
-297 -382 0
-298 -383 0
-299 -384 0
-300 -385 0
-296 -411 0
-297 -412 0
-298 -413 0
-299 -414 0
-300 -415 0
-301 -426 0
-302 -427 0
-303 -428 0
-304 -429 0
-305 -430 0
-311 -376 0
-312 -377 0
-313 -378 0
-314 -379 0
-315 -380 0
-311 -401 0
-312 -402 0
-313 -403 0
-314 -404 0
-315 -405 0
-311 -436 0
-312 -437 0
-313 -438 0
-314 -439 0
-315 -440 0
-316 -346 0
-317 -347 0
-318 -348 0
-319 -349 0
-320 -350 0
-316 -426 0
-317 -427 0
-318 -428 0
-319 -429 0
-320 -430 0
-316 -456 0
-317 -457 0
-318 -458 0
-319 -459 0
-320 -460 0
-326 -416 0
-327 -417 0
-328 -418 0
-329 -419 0
-330 -420 0
-326 -451 0
-327 -452 0
-328 -453 0
-329 -454 0
-330 -455 0
-326 -476 0
-327 -477 0
-328 -478 0
-329 -479 0
-330 -480 0
-331 -371 0
-332 -372 0
-333 -373 0
-334 -374 0
-335 -375 0
-331 -431 0
-332 -432 0
-333 -433 0
-334 -434 0
-335 -435 0
-331 -466 0
-332 -467 0
-333 -468 0
-334 -469 0
-335 -470 0
-331 -486 0
-332 -487 0
-333 -488 0
-334 -489 0
-335 -490 0
-336 -426 0
-337 -427 0
-338 -428 0
-339 -429 0
-340 -430 0
-341 -381 0
-342 -382 0
-343 -383 0
-344 -384 0
-345 -385 0
-341 -456 0
-342 -457 0
-343 -458 0
-344 -459 0
-345 -460 0
-341 -481 0
-342 -482 0
-343 -483 0
-344 -484 0
-345 -485 0
-351 -401 0
-352 -402 0
-353 -403 0
-354 -404 0
-355 -405 0
-356 -466 0
-357 -467 0
-358 -468 0
-359 -469 0
-360 -470 0
-356 -486 0
-357 -487 0
-358 -488 0
-359 -489 0
-360 -490 0
-366 -481 0
-367 -482 0
-368 -483 0
-369 -484 0
-370 -485 0
-366 -486 0
-367 -487 0
-368 -488 0
-369 -489 0
-370 -490 0
-371 -456 0
-372 -457 0
-373 -458 0
-374 -459 0
-375 -460 0
-371 -481 0
-372 -482 0
-373 -483 0
-374 -484 0
-375 -485 0
-381 -421 0
-382 -422 0
-383 -423 0
-384 -424 0
-385 -425 0
-381 -426 0
-382 -427 0
-383 -428 0
-384 -429 0
-385 -430 0
-381 -431 0
-382 -432 0
-383 -433 0
-384 -434 0
-385 -435 0
-381 -486 0
-382 -487 0
-383 -488 0
-384 -489 0
-385 -490 0
-386 -426 0
-387 -427 0
-388 -428 0
-389 -429 0
-390 -430 0
-386 -496 0
-387 -497 0
-388 -498 0
-389 -499 0
-390 -500 0
-391 -466 0
-392 -467 0
-393 -468 0
-394 -469 0
-395 -470 0
-391 -471 0
-392 -472 0
-393 -473 0
-394 -474 0
-395 -475 0
-401 -436 0
-402 -437 0
-403 -438 0
-404 -439 0
-405 -440 0
-401 -451 0
-402 -452 0
-403 -453 0
-404 -454 0
-405 -455 0
-426 -476 0
-427 -477 0
-428 -478 0
-429 -479 0
-430 -480 0
-431 -466 0
-432 -467 0
-433 -468 0
-434 -469 0
-435 -470 0
-431 -486 0
-432 -487 0
-433 -488 0
-434 -489 0
-435 -490 0
-436 -461 0
-437 -462 0
-438 -463 0
-439 -464 0
-440 -465 0
-436 -466 0
-437 -467 0
-438 -468 0
-439 -469 0
-440 -470 0
-441 -476 0
-442 -477 0
-443 -478 0
-444 -479 0
-445 -480 0
-446 -476 0
-447 -477 0
-448 -478 0
-449 -479 0
-450 -480 0
